Generated using phonoLAMMPS
1.0
        8.1940000000         0.0000000000         0.0000000000
        0.0000000000         5.9680000000         0.0000000000
        3.4004000000         0.0000000000         7.2231000000
C H 
20 16
Direct
0.506171502609953   0.267243811997319   0.827824519942961
0.644273283928643   0.411341610254692   0.720268877628719
0.761417411620277   0.353863602546917   0.537038459941023
0.901338019966498   0.499146353887399   0.424851577577494
1.016618752495042   0.438283150134048   0.244730679348202
0.993548529341883   0.233600919906166   0.172540442469300
0.856270132667239   0.088292201742627   0.279804532679874
0.738317757739001   0.145745103887399   0.463336476028298
0.598278779745232   0.001616869973190   0.574932684027633
0.483686752706000   0.062270018431635   0.755365979980894
0.493595785579969   0.766883716487936   0.172653194611732
0.355729829842274   0.911842002345844   0.279730574130221
0.238570190673174   0.854320625000000   0.463477254918248
0.098555635222422   0.998731752680965   0.574978853954673
-0.016697417843564   0.937642984249330   0.755144580581744
0.006344468071492   0.733018830428954   0.827855298971356
0.143601176171109   0.587634182305630   0.720158714402403
0.261524303293865   0.645362050938338   0.537092262325040
0.401685760857788   0.501014840817694   0.424844728717587
0.516107029412932   0.561864661528150   0.244592583516773
0.417568365679891   0.315021008713137   0.967956705569631
0.662298745459046   0.571222131367292   0.775342956625272
0.920311156548860   0.658401965482574   0.480315684401434
1.124631776652796   0.549898290884719   0.161759355401420
1.083162475659978   0.186073532171582   0.031947978014980
0.837511509601056   -0.070417774798928   0.224140254184491
0.579431639571141   -0.157419381702413   0.519262773601362
0.374968594792170   -0.050162582104558   0.838872392739959
0.582396464929439   0.814266611930295   0.031893102684443
0.337810633021280   1.070839090147453   0.224129609170578
0.079802019128555   1.157759301273458   0.519255883208041
-0.124934692954094   1.049133532171582   0.839032232697872
-0.083195808695100   0.685332917225201   0.967894073181875
0.162617934543425   0.428886429289544   0.775429271365480
0.420702962117458   0.341906843163539   0.480296952831887
0.624856365149070   0.450546796246649   0.161832612036383
