Generated using phonoLAMMPS
1.0
        8.7954010000         0.0000000000         0.0000000000
        0.0000000000         8.7954010000         0.0000000000
        0.0000000000         0.0000000000        30.0676020000
O C O C O C O C O C H O C O C O C O C O C H O C O C O C O C O C H O C O C O C O C O C H O C O C O C O C O C H O C O C O C O C O C H O C O C O C O C O C H O C O C O C O C O C H 
1 2 1 2 1 2 1 2 1 2 20 1 2 1 2 1 2 1 2 1 2 20 1 2 1 2 1 2 1 2 1 2 20 1 2 1 2 1 2 1 2 1 2 20 1 2 1 2 1 2 1 2 1 2 20 1 2 1 2 1 2 1 2 1 2 20 1 2 1 2 1 2 1 2 1 2 20 1 2 1 2 1 2 1 2 1 2 20
Direct
-0.122397261932685   0.121784669056021   -0.343548281635496
-0.202313459045244   0.260779468724621   -0.348562848477241
-0.368651071167761   0.230969457788224   -0.338178748009236
-0.451214674578226   0.368990453078831   -0.341629172821963
-0.597342633951539   0.348925762452445   -0.360906466701269
-0.593318258030532   0.396366464701268   -0.409648597849606
-0.498923130395078   0.295623474131538   -0.433995201878753
-0.487522740577718   0.336287225562541   -0.479607419307998
-0.369224325303644   0.234121104881972   -0.501342607900690
-0.224650018799598   0.271677095791312   -0.483438818965343
-0.108950916507388   0.165781412354025   -0.494553972079316
0.040281733601458   0.221893123463046   -0.474785950672089
0.028332306849909   0.238057252875679   -0.427925213324295
0.062703565192764   0.104215828249332   -0.403694182196505
0.034397635764418   0.131184354186921   -0.354311461219954
-0.155523778847605   0.347314579517182   -0.325476571094695
-0.191279510735213   0.303424255471695   -0.383063105597846
-0.381862293714636   0.185140279562012   -0.304069476508303
-0.413606952087801   0.144377271712796   -0.361379667058251
-0.678875698788492   0.422418034152167   -0.342796209687756
-0.639070691603487   0.230786862361364   -0.356734467883405
-0.550030180545492   0.514279223880753   -0.412582586399807
-0.709784238376397   0.393930418863222   -0.423644592608350
-0.454190206904722   0.457406546898771   -0.483117476411987
-0.599568569983336   0.321089510302032   -0.495962830690655
-0.396722673588163   0.113045101638913   -0.495123954347939
-0.368210613705958   0.251646627595490   -0.537866771018188
-0.137897635366483   0.051245645309407   -0.481919775311646
-0.098509891703630   0.157554158133324   -0.531208408306056
0.135926946366630   0.145370972852744   -0.483632050204735
0.067841022825452   0.334740621831796   -0.489048079058649
0.183959662555465   0.074620929733619   -0.408919740257304
-0.006664164601478   0.007713008195988   -0.415731656950894
0.094047104844907   0.041964431183979   -0.335034632958092
0.082784514316061   0.241206626053775   -0.343261128705907
-0.121784782751804   -0.122397261932685   -0.093548265006301
-0.260779582420404   -0.202313459045244   -0.098562865106436
-0.230969571484006   -0.368651071167761   -0.088178731380042
-0.368990566774613   -0.451214674578226   -0.091629189451157
-0.348925876148228   -0.597342520255756   -0.110906450072074
-0.396366578397051   -0.593318258030532   -0.159648614478800
-0.295623587827320   -0.498923130395078   -0.183995185249559
-0.336287339258324   -0.487522740577718   -0.229607402678804
-0.234121218577754   -0.369224325303644   -0.251342591271495
-0.271677209487094   -0.224650018799598   -0.233438835594538
-0.165781526049807   -0.108950916507388   -0.244553955450122
-0.221893237158829   0.040281733601458   -0.224785934042894
-0.238057366571462   0.028332306849909   -0.177925196695101
-0.104215941945114   0.062703565192764   -0.153694165567311
-0.131184467882704   0.034397635764418   -0.104311444590759
-0.347314693212964   -0.155523778847605   -0.075476587723890
-0.303424369167477   -0.191279510735213   -0.133063088968651
-0.185140393257795   -0.381862293714636   -0.054069493137497
-0.144377385408579   -0.413606952087801   -0.111379683687445
-0.422418147847949   -0.678875698788492   -0.092796193058562
-0.230786862361364   -0.639070691603487   -0.106734484512599
-0.514279223880753   -0.550030180545492   -0.162582569770612
-0.393930532559004   -0.709784238376397   -0.173644609237544
-0.457406660594554   -0.454190206904722   -0.233117493041181
-0.321089623997814   -0.599568569983336   -0.245962814061461
-0.113045215334696   -0.396722673588163   -0.245123970977133
-0.251646741291273   -0.368210613705958   -0.287866787647382
-0.051245759005189   -0.137897635366483   -0.231919791940841
-0.157554271829107   -0.098509891703630   -0.281208391676862
-0.145371086548527   0.135926946366630   -0.233632033575541
-0.334740735527579   0.067841022825452   -0.239048062429455
-0.074621043429401   0.183959662555465   -0.158919723628110
-0.007713121891770   -0.006664164601478   -0.165731640321699
-0.041964544879762   0.094047104844907   -0.085034616328898
-0.241206739749558   0.082784514316061   -0.093261145335102
0.122397148236902   -0.121784782751804   0.156451718364504
0.202313345349462   -0.260779582420404   0.151437151522759
0.368650957471979   -0.230969571484006   0.161821251990764
0.451214560882443   -0.368990566774613   0.158370827178037
0.597342520255756   -0.348925876148228   0.139093533298731
0.593318144334749   -0.396366578397051   0.090351402150394
0.498923016699295   -0.295623587827320   0.066004798121247
0.487522626881935   -0.336287339258324   0.020392580692002
0.369224211607862   -0.234121218577754   -0.001342607900690
0.224649905103815   -0.271677209487094   0.016561181034657
0.108950802811606   -0.165781526049807   0.005446027920684
-0.040281847297241   -0.221893237158829   0.025214049327911
-0.028332420545692   -0.238057366571462   0.072074786675705
-0.062703678888546   -0.104215941945114   0.096305817803495
-0.034397749460201   -0.131184467882704   0.145688538780046
0.155523665151822   -0.347314693212964   0.174523428905305
0.191279397039430   -0.303424369167477   0.116936894402154
0.381862180018853   -0.185140393257795   0.195930523491697
0.413606838392019   -0.144377385408579   0.138620332941749
0.678875585092709   -0.422418147847949   0.157203790312244
0.639070577907704   -0.230786862361364   0.143265532116595
0.550030066849709   -0.514279223880753   0.087417413600193
0.709784124680614   -0.393930532559004   0.076355407391650
0.454190093208940   -0.457406660594554   0.016882523588013
0.599568456287553   -0.321089623997814   0.004037169309345
0.396722559892380   -0.113045215334696   0.004876045652061
0.368210500010176   -0.251646741291273   -0.037866771018188
0.137897521670700   -0.051245759005189   0.018080224688354
0.098509778007848   -0.157554271829107   -0.031208408306056
-0.135927060062412   -0.145371086548527   0.016367949795265
-0.067841136521234   -0.334740735527579   0.010951920941351
-0.183959776251248   -0.074621043429401   0.091080259742696
0.006664050905695   -0.007713121891770   0.084268343049106
-0.094047218540690   -0.041964544879762   0.164965367041908
-0.082784628011844   -0.241206739749558   0.156738871294093
0.121784669056021   0.122397148236902   0.406451701735310
0.260779468724621   0.202313345349462   0.401437134893564
0.230969457788224   0.368650957471979   0.411821268619958
0.368990453078831   0.451214560882443   0.408370810548843
0.348925762452445   0.597342520255756   0.389093549927926
0.396366464701268   0.593318144334749   0.340351385521200
0.295623474131538   0.498923016699295   0.316004814750441
0.336287225562541   0.487522626881935   0.270392597321196
0.234121104881972   0.369224211607862   0.248657408728505
0.271677095791312   0.224649905103815   0.266561164405462
0.165781412354025   0.108950802811606   0.255446044549878
0.221893123463046   -0.040281847297241   0.275214065957106
0.238057252875679   -0.028332420545692   0.322074803304899
0.104215828249332   -0.062703678888546   0.346305834432689
0.131184354186921   -0.034397749460201   0.395688555409241
0.347314579517182   0.155523665151822   0.424523412276110
0.303424255471695   0.191279397039430   0.366936911031349
0.185140279562012   0.381862180018853   0.445930506862503
0.144377271712796   0.413606838392019   0.388620316312555
0.422418034152167   0.678875585092709   0.407203806941438
0.230786748665581   0.639070577907704   0.393265515487401
0.514279110184971   0.550030066849709   0.337417430229388
0.393930418863222   0.709784124680614   0.326355390762456
0.457406546898771   0.454190093208940   0.266882506958819
0.321089510302032   0.599568456287553   0.254037185938539
0.113045101638913   0.396722559892380   0.254876029022867
0.251646627595490   0.368210500010176   0.212133212352618
0.051245645309407   0.137897521670700   0.268080208059159
0.157554158133324   0.098509778007848   0.218791608323138
0.145370972852744   -0.135927060062412   0.266367966424459
0.334740621831796   -0.067841136521234   0.260951904312156
0.074620929733619   -0.183959776251248   0.341080276371890
0.007713008195988   0.006664050905695   0.334268359678301
0.041964431183979   -0.094047218540690   0.414965383671102
0.241206626053775   -0.082784628011844   0.406738854664898
-0.316631271274613   -0.205998453055182   0.400167063539021
-0.245354248203123   -0.275115142561436   0.437277172951804
-0.239429219884346   -0.445397543557139   0.429136317555354
-0.155542083868604   -0.472470442223157   0.389642745703498
-0.182100736509910   -0.620110669200870   0.372362352009316
-0.099226629917158   -0.638294490495658   0.328283246532264
-0.171884260876792   -0.561223644038515   0.292615021310978
-0.160962075521059   -0.400602314777916   0.295476639606976
-0.196196853332782   -0.333256778173047   0.250018741102134
-0.195896923858276   -0.172279126329772   0.253329979557399
-0.342515594229302   -0.111576038431903   0.262210867364813
-0.324665924839584   0.039763621920138   0.286242580968047
-0.275528085643850   0.012715736326291   0.330469054366224
-0.396173181870844   0.015472517967060   0.361754189775427
-0.338014719283407   -0.047403182640564   0.405601750349097
-0.129334978587105   -0.228870861032942   0.441700871256710
-0.311570217207834   -0.251034603197739   0.467839503795481
-0.183646544370177   -0.504169281195934   0.457366603429166
-0.356427864971705   -0.490744765360897   0.426150811760778
-0.141015855900146   -0.706045238869723   0.396555900932838
-0.305574583808061   -0.639205648497436   0.367424246203605
0.020667278274180   -0.601683084148182   0.330831105187570
-0.095408157058445   -0.760534056377873   0.319836247666176
-0.044568291997147   -0.366770884010860   0.305629960114545
-0.242060026597991   -0.357351870596918   0.320637342479124
-0.106529651121080   -0.367878508324976   0.226121690715475
-0.306086897004469   -0.375268279411024   0.236709033197925
-0.411261294396924   -0.190940583607274   0.282608603107092
-0.402743433755891   -0.095006583554292   0.230152673964488
-0.237724124232653   0.109554868504574   0.269115874288877
-0.431840572135369   0.106338983293655   0.285890806988865
-0.435976142531762   0.134110997326898   0.366085961893469
-0.493318383095893   -0.053598238443023   0.349862785864998
-0.229946309440582   0.008742864594804   0.415079692753682
-0.422072057885706   -0.026728627836298   0.432392812702523
0.205998339359399   -0.316631271274613   -0.349832919831784
0.275115028865654   -0.245354248203123   -0.312722810419002
0.445397429861356   -0.239429219884346   -0.320863699073840
0.472470328527375   -0.155542083868604   -0.360357237667307
0.620110555505087   -0.182100736509910   -0.377637664619879
0.638294376799875   -0.099226629917158   -0.421716736838541
0.561223530342733   -0.171884260876792   -0.457384995318217
0.400602201082134   -0.160962075521059   -0.454523377022218
0.333256664477265   -0.196196853332782   -0.499981242268672
0.172279012633989   -0.195896923858276   -0.496670037071796
0.111575924736121   -0.342515594229302   -0.487789116005992
-0.039763735615920   -0.324665924839584   -0.463757402402759
-0.012715850022074   -0.275528085643850   -0.419530962262970
-0.015472631662843   -0.396173181870844   -0.388245793595379
0.047403068944781   -0.338014719283407   -0.344398233021709
0.228870747337160   -0.129334978587105   -0.308299145372484
0.251034489501957   -0.311570217207834   -0.282160479575325
0.504169167500152   -0.183646544370177   -0.292633379941639
0.490744651665115   -0.356427864971705   -0.323849171610027
0.706045011478158   -0.141015855900146   -0.353444115696356
0.639205534801654   -0.305574583808061   -0.382575737167201
0.601682970452399   0.020667278274180   -0.419168911441624
0.760533942682090   -0.095408157058445   -0.430163735704630
0.366770770315077   -0.044568291997147   -0.444370056514650
0.357351756901135   -0.242060026597991   -0.429362674150070
0.367878394629193   -0.106529651121080   -0.523878325913719
0.375268165715241   -0.306086897004469   -0.513290983431269
0.190940469911491   -0.411261294396924   -0.467391413522103
0.095006469858509   -0.402743433755891   -0.519847309406317
-0.109554982200357   -0.237724124232653   -0.480884142340317
-0.106339210685221   -0.431840572135369   -0.464109209640330
-0.134111111022681   -0.435976142531762   -0.383914054735725
0.053598124747240   -0.493318383095893   -0.400137197505807
-0.008742978290586   -0.229946309440582   -0.334920290617123
0.026728400444732   -0.422072057885706   -0.317607170668283
0.316631157578830   0.205998339359399   -0.099832936460979
0.245354134507341   0.275115028865654   -0.062722827048196
0.239429106188564   0.445397429861356   -0.070863682444646
0.155541970172821   0.472470328527375   -0.110357254296502
0.182100622814128   0.620110555505087   -0.127637647990684
0.099226516221375   0.638294376799875   -0.171716753467736
0.171884147181010   0.561223530342733   -0.207384978689022
0.160961961825277   0.400602201082134   -0.204523360393024
0.196196739636999   0.333256664477265   -0.249981258897866
0.195896810162493   0.172279012633989   -0.246670020442601
0.342515480533520   0.111575924736121   -0.237789132635187
0.324665811143801   -0.039763735615920   -0.213757419031953
0.275527971948067   -0.012715850022074   -0.169530945633775
0.396173068175061   -0.015472631662843   -0.138245810224573
0.338014605587625   0.047403182640564   -0.094398249650903
0.129334864891322   0.228870747337160   -0.058299128743290
0.311570103512051   0.251034489501957   -0.032160496204519
0.183646430674394   0.504169167500152   -0.042633396570834
0.356427751275923   0.490744651665115   -0.073849188239222
0.141015742204363   0.706045125173940   -0.103444132325551
0.305574470112278   0.639205534801654   -0.132575753796395
-0.020667391969962   0.601682970452399   -0.169168894812430
0.095408043362662   0.760533942682090   -0.180163752333824
0.044568178301365   0.366770770315077   -0.194370039885455
0.242059912902209   0.357351756901135   -0.179362657520876
0.106529537425298   0.367878394629193   -0.273878309284525
0.306086783308686   0.375268165715241   -0.263290966802075
0.411261180701141   0.190940469911491   -0.217391396892908
0.402743320060109   0.095006469858509   -0.269847326035512
0.237724010536870   -0.109554982200357   -0.230884125711123
0.431840458439587   -0.106339096989438   -0.214109193011135
0.435976028835979   -0.134111111022681   -0.133914038106531
0.493318269400110   0.053598124747240   -0.150137214135002
0.229946195744799   -0.008742978290586   -0.084920307246318
0.422071944189924   0.026728514140515   -0.067607187297477
-0.205998453055182   0.316631157578830   0.150167080168216
-0.275115142561436   0.245354134507341   0.187277189580998
-0.445397543557139   0.239429106188564   0.179136300926160
-0.472470442223157   0.155541970172821   0.139642729074304
-0.620110669200870   0.182100622814128   0.122362335380121
-0.638294490495658   0.099226516221375   0.078283263161459
-0.561223644038515   0.171884147181010   0.042615004681783
-0.400602314777916   0.160961961825277   0.045476622977782
-0.333256778173047   0.196196739636999   0.000018757731328
-0.172279126329772   0.195896810162493   0.003329962928204
-0.111576038431903   0.342515480533520   0.012210883994008
0.039763621920138   0.324665811143801   0.036242597597241
0.012715736326291   0.275527971948067   0.080469037737030
0.015472517967060   0.396173068175061   0.111754206404621
-0.047403182640564   0.338014605587625   0.155601766978291
-0.228870861032942   0.129334864891322   0.191700854627516
-0.251034603197739   0.311570103512051   0.217839520424675
-0.504169281195934   0.183646430674394   0.207366620058360
-0.490744765360897   0.356427751275923   0.176150828389973
-0.706045238869723   0.141015742204363   0.146555884303643
-0.639205648497436   0.305574470112278   0.117424262832799
-0.601683084148182   -0.020667391969962   0.080831088558376
-0.760534056377873   0.095408043362662   0.069836264295370
-0.366770884010860   0.044568178301365   0.055629943485350
-0.357351870596918   0.242059912902209   0.070637325849930
-0.367878508324976   0.106529537425298   -0.023878325913719
-0.375268279411024   0.306086783308686   -0.013290983431269
-0.190940583607274   0.411261180701141   0.032608586477897
-0.095006583554292   0.402743320060109   -0.019847309406317
0.109554868504574   0.237724010536870   0.019115857659683
0.106339096989438   0.431840458439587   0.035890823618059
0.134110997326898   0.435976028835979   0.116085945264275
-0.053598238443023   0.493318269400110   0.099862802494193
0.008742864594804   0.229946195744799   0.165079709382877
-0.026728627836298   0.422071944189924   0.182392829331717
