Generated using phonoLAMMPS
1.0
        2.8284271247         0.0000000000         0.0000000000
        1.4142135624         2.4494897428         0.0000000000
        1.4142135624         0.8164965809         2.3094010768
Pd 
1
Direct
0.000000000000000   0.000000000000000   0.000000000000000
