Generated using phonoLAMMPS
1.0
        3.1899997378         0.0000000000         0.0000000000
       -1.5950000124         2.7626210760         0.0000000000
        0.0000000000         0.0000000000         5.1890001297
Ga N 
2 2
Direct
0.666666755125401   0.333333340000000   0.000000000000000
0.333333340125393   0.666666630000000   0.500000000000000
0.666666755125401   0.333333340000000   0.375000000000000
0.333333340125393   0.666666630000000   0.875000000000000
