
units		metal

boundary	p p p

box tilt large

atom_style      atomic

read_data       data.si

pair_style      tersoff
pair_coeff      * * SiCGe.tersoff  Si(C)

neighbor	0.3 bin
