Generated using phonoLAMMPS
1.0
        5.4500000000         0.0000000000         0.0000000000
        0.0000000000         5.4500000000         0.0000000000
        0.0000000000         0.0000000000         5.4500000000
Si 
8
Direct
0.875000000000000   0.875000000000000   0.875000000000000
0.875000000000000   0.375000000000000   0.375000000000000
0.375000000000000   0.875000000000000   0.375000000000000
0.375000000000000   0.375000000000000   0.875000000000000
0.125000000000000   0.125000000000000   0.125000000000000
0.125000000000000   0.625000000000000   0.625000000000000
0.625000000000000   0.125000000000000   0.625000000000000
0.625000000000000   0.625000000000000   0.125000000000000
